objective value:                                  -23
t_n_9                                               1 	(obj:-1)
t_n_89                                              1 	(obj:-1)
t_n_288                                             1 	(obj:-1)
t_n_328                                             1 	(obj:-1)
t_n_347                                             1 	(obj:-1)
t_n_389                                             1 	(obj:-1)
t_n_401                                             1 	(obj:-1)
t_n_443                                             1 	(obj:-1)
t_n_468                                             1 	(obj:-1)
t_n_556                                             1 	(obj:-1)
t_n_599                                             1 	(obj:-1)
t_n_623                                             1 	(obj:-1)
t_n_625                                             1 	(obj:-1)
t_n_634                                             1 	(obj:-1)
t_n_640                                             1 	(obj:-1)
t_n_662                                             1 	(obj:-1)
t_n_796                                             1 	(obj:-1)
t_n_807                                             1 	(obj:-1)
t_n_813                                             1 	(obj:-1)
t_n_847                                             1 	(obj:-1)
t_n_897                                             1 	(obj:-1)
t_n_931                                             1 	(obj:-1)
t_n_933                                             1 	(obj:-1)
